102
103
103
110
111
112
114
127
128
138
138
141
143
144
149
155
156
160
160
164
164
166
173
174
175
175
176
178
178
182
187
189
191
191
195
196
198
198
198
199
201
202
203
205
207
207
208
208
211
211
212
213
214
215
216
217
217
218
218
219
220
220
222
223
223
225
226
226
229
243
246
247
250
262
278
287
297
299
300
301
304
304
304
307
308
308
309
310
315
317
317
317
318
319
324
325
325
329
330
331
332
333
333
335
336
340
344
345
346
347
347
348
348
348
351
351
352
352
352
353
354
354
354
356
356
357
358
358
360
365
365
366
369
369
370
370
371
371
371
371
372
372
373
373
374
375
375
376
376
376
377
377
380
380
381
381
382
382
382
383
383
384
385
386
387
387
388
388
389
390
392
393
394
396
397
400
402
403
406
406
406
408
408
411
43
43
48
599
749
80
8
8
96
